certificates/rado_a14_c62_N57.drat
-49 4 -57 0
-51 -57 0
d -4 -51 -57 0
-1 -52 -53 -55 -56 -57 0
-49 -55 -57 0
-53 -55 -56 -57 0
d -1 -52 -53 -55 -56 -57 0
6 33 -3 9 0
-55 -56 -57 0
d -53 -55 -56 -57 0
-1 55 -56 0
-56 -57 0
d -55 -56 -57 0
1 -57 0
-4 -17 5 0
5 -57 0
-7 -1 0
d -7 -37 -1 0
-57 0
-7 4 0
4 0
-10 0
7 0
-1 0
-43 0
-13 0
-40 0
49 0
9 0
5 0
-55 0
-45 0
-15 0
-3 0
-41 0
-17 0
-12 0
-11 0
21 0
23 0
35 0
51 0
37 0
30 0
33 0
25 0
20 0
32 0
31 0
2 0
-27 0
-29 0
0
